%%% static parameters %%%
timespan = 1;
Fact = [3];
Distr1 = [10];
Distr2 = [20];
Clients_N = [40];
Demand_W = [15];
Lt0 = [4];
Lt1 = [4];
SS_ = [0.85];
DS_D = [7];
K = [200];
MA = [500];
%%% dynamic parameters %%%
lost_ratio_sales_ret_th = 0.7242196751301229;
lost_ratio_sales_ret_w = 14;
lost_ratio_sales_dis_th = 0.977943892229367;
lost_ratio_sales_dis_w = 14;
lost_ratio_sales_fac_th = 0.3028030372577408;
lost_ratio_sales_fac_w = 70;
stock_customer_MA_mean_relative_th = 0.040216676566523835;
stock_customer_MA_mean_relative_w = 40;
stock_distributor_MA_mean_relative_th = 0.9576115856590027;
stock_distributor_MA_mean_relative_w = 3;
stock_retailer_MA_mean_relative_th = 0.6208496327335319;
stock_retailer_MA_mean_relative_w = 64;
stock_factory_MA_mean_relative_th = 0.03112641823156459;
stock_factory_MA_mean_relative_w = 52;
